minizinc/sudoku_problems2/sudoku_p59.dzn
%
% sudoku_p59.dzn
% See http://www.hakank.org/minizinc/sudoku_gcc.mzn
% 
% This problem is problem 59 from
% Gecode's sudoku.cpp
% http://www.gecode.org/gecode-doc-latest/sudoku_8cpp-source.html
% 
x = array2d(1..n, 1..n, [   
% http://janko.at/Raetsel/Sudoku/506.a.htm
% 59
  _,  _,  _, 15, 13, 10, 14,  _,  _,  6,  _,  1,  _,  3, 11,  _,
  1,  _,  _, 12,  _,  _,  _,  9,  _, 13,  3,  4,  _,  6,  _,  _,
  8, 10,  3,  _,  4,  _,  _,  _,  _,  _,  2, 14,  7, 12,  _,  _,
  _,  _, 13, 16,  _,  3,  _,  _,  _,  _,  _,  _,  8,  _,  5, 14,
  3, 15,  2,  _, 12,  _,  _,  _,  _,  _,  8, 11,  _,  5,  _,  9,
  _, 13, 14,  _,  8,  _,  _, 11,  2, 12,  _,  _, 10,  _,  _,  4,
 12,  8,  _,  _,  _,  1,  _,  _,  _,  _,  _,  _,  _,  _,  _,  6,
  _,  _,  _,  _,  _, 13,  _,  3,  1,  _,  5,  _,  _,  _, 14,  _,
  _, 16,  _,  _,  _, 14,  _,  8,  4,  _, 13,  _,  _,  _,  _,  _,
 10,  _,  _,  _,  _,  _,  _,  _,  _,  _,  1,  _,  _,  _,  4,  3,
 13,  _,  _, 14,  _,  _,  1,  7, 12,  _,  _,  2,  _, 15, 16,  _,
  2,  _,  5,  _, 10, 15,  _,  _,  _,  _,  _,  9,  _, 13,  7, 11,
  7,  3,  _,  2,  _,  _,  _,  _,  _,  _,  6,  _, 11,  4,  _,  _,
  _,  _,  4,  8,  3, 11,  _,  _,  _,  _,  _, 13,  _, 10,  6,  1,
  _,  _, 10,  _,  1,  4, 15,  _, 11,  _,  _,  _,  5,  _,  _, 12,
  _,  1, 12,  _,  6,  _, 13,  _,  _,  2,  4, 10,  9,  _,  _,  _
]);

n = 16;


